(set-info :origin "NTS benchmark converted to SMT-LIB2 using Eldarica (http://lara.epfl.ch/w/eldarica)")
(set-logic HORN)
(declare-fun p (Int Int Int Int Int Int Int Int Int Int Int Int Int Int Int Int Int Int Int Int Int Int Int Int Int Int Int Int Int Int Int Int Int Int Int Int Int Int Int Int Int Int Int Int Int Int Int Int Int Int Int Int Int Int Int Int Int Int Int Int Int Int Int Int Int Int Int Int Int Int Int Int Int Int Int Int Int Int Int Int Int Int Int) Bool)
(assert(forall((A Int)(B Int)(C Int)(D Int)(E Int)(F Int)(G Int)(H Int)(I Int)(J Int)(K Int)(L Int)(M Int)(N Int)(O Int)(P Int)(Q Int)(R Int)(S Int)(T Int)(U Int)(V Int)(W Int)(X Int)(Y Int)(Z Int)(A1 Int)(B1 Int)(C1 Int)(D1 Int)(E1 Int)(F1 Int)(G1 Int)(H1 Int)(I1 Int)(J1 Int)(K1 Int)(L1 Int)(M1 Int)(N1 Int)(O1 Int)(P1 Int)(Q1 Int)(R1 Int)(S1 Int)(T1 Int)(U1 Int)(V1 Int)(W1 Int)(X1 Int)(Y1 Int)(Z1 Int)(A2 Int)(B2 Int)(C2 Int)(D2 Int)(E2 Int)(F2 Int)(G2 Int)(H2 Int)(I2 Int)(J2 Int)(K2 Int)(L2 Int)(M2 Int)(N2 Int)(O2 Int)(P2 Int)(Q2 Int)(R2 Int)(S2 Int)(T2 Int)(U2 Int)(V2 Int)(W2 Int)(X2 Int)(Y2 Int)(Z2 Int)(A3 Int)(B3 Int)(C3 Int)(D3 Int)(E3 Int)(F3 Int)(G3 Int)(H3 Int)(I3 Int)(J3 Int)(K3 Int)(L3 Int)(M3 Int)(N3 Int)(O3 Int)(P3 Int)(Q3 Int)(R3 Int)(S3 Int)(T3 Int)(U3 Int)(V3 Int)(W3 Int)(X3 Int)(Y3 Int)(Z3 Int)(A4 Int)(B4 Int)(C4 Int)(D4 Int)(E4 Int)(F4 Int)(G4 Int)(H4 Int)(I4 Int)(J4 Int)(K4 Int)(L4 Int)(M4 Int)(N4 Int)(O4 Int)(P4 Int)(Q4 Int)(R4 Int)(S4 Int)(T4 Int)(U4 Int)(V4 Int)(W4 Int)(X4 Int)(Y4 Int)(Z4 Int))(=>(and (and (= A 11) (and (and (and (and (and (and (and (and (and (and (and (and (and (and (and (and (and (and (and (and (and (and (and (and (and (and (and (and (and (and (and (and (and (and (and (and (and (and (and (and (and (and (and (and (and (and (and (and (and (and (and (and (and (and (and (and (and (and (and (and (and (and (and (and (and (and (and (and (and (and (and (and (and (and (and (and (and (and (and (and (and (= F3 B) (= G3 C)) (= H3 D)) (= I3 E)) (= J3 F)) (= K3 G)) (= L3 H)) (= M3 I)) (= N3 J)) (= O3 K)) (= P3 L)) (= Q3 M)) (= R3 N)) (= S3 O)) (= T3 P)) (= U3 Q)) (= V3 R)) (= W3 S)) (= X3 T)) (= Y3 U)) (= Z3 V)) (= A4 W)) (= B4 X)) (= C4 Y)) (= D4 Z)) (= E4 A1)) (= F4 B1)) (= G4 C1)) (= H4 D1)) (= I4 E1)) (= J4 F1)) (= K4 G1)) (= L4 H1)) (= M4 I1)) (= N4 J1)) (= O4 K1)) (= P4 L1)) (= Q4 M1)) (= R4 N1)) (= S4 O1)) (= T4 P1)) (= F3 Q1)) (= U4 R1)) (= H3 S1)) (= I3 T1)) (= J3 U1)) (= K3 V1)) (= L3 W1)) (= M3 X1)) (= N3 Y1)) (= O3 Z1)) (= P3 A2)) (= Q3 B2)) (= R3 C2)) (= S3 D2)) (= T3 E2)) (= U3 F2)) (= V4 G2)) (= W4 H2)) (= X3 I2)) (= Y3 J2)) (= Z3 K2)) (= A4 L2)) (= B4 M2)) (= C4 N2)) (= D4 O2)) (= E4 P2)) (= F4 Q2)) (= G4 R2)) (= X4 S2)) (= Y4 T2)) (= Z4 U2)) (= J3 V2)) (= L4 W2)) (= M4 X2)) (= N4 Y2)) (= O4 Z2)) (= P4 A3)) (= Q4 B3)) (= R4 C3)) (= S4 D3)) (= T4 E3))) (and (and (and (and (and (and (not (not (>= (+ (+ J3 (- 3)) 0) 0))) (not (not (= (* (- 1) Z4) (- 1))))) (not (not (= (+ J3 1) Y4)))) (not (not (= (* (- 1) X4) (- 1))))) (not (not (= (+ J3 1) W4)))) (not (not (= (* (- 1) V4) (- 1))))) (not (not (= (* (- 1) P3) U4))))) (p A B C D E F G H I J K L M N O P Q R S T U V W X Y Z A1 B1 C1 D1 E1 F1 G1 H1 I1 J1 K1 L1 M1 N1 O1 P1 Q1 R1 S1 T1 U1 V1 W1 X1 Y1 Z1 A2 B2 C2 D2 E2 F2 G2 H2 I2 J2 K2 L2 M2 N2 O2 P2 Q2 R2 S2 T2 U2 V2 W2 X2 Y2 Z2 A3 B3 C3 D3 E3))))
(assert(forall((A Int)(B Int)(C Int)(D Int)(E Int)(F Int)(G Int)(H Int)(I Int)(J Int)(K Int)(L Int)(M Int)(N Int)(O Int)(P Int)(Q Int)(R Int)(S Int)(T Int)(U Int)(V Int)(W Int)(X Int)(Y Int)(Z Int)(A1 Int)(B1 Int)(C1 Int)(D1 Int)(E1 Int)(F1 Int)(G1 Int)(H1 Int)(I1 Int)(J1 Int)(K1 Int)(L1 Int)(M1 Int)(N1 Int)(O1 Int)(P1 Int)(Q1 Int)(R1 Int)(S1 Int)(T1 Int)(U1 Int)(V1 Int)(W1 Int)(X1 Int)(Y1 Int)(Z1 Int)(A2 Int)(B2 Int)(C2 Int)(D2 Int)(E2 Int)(F2 Int)(G2 Int)(H2 Int)(I2 Int)(J2 Int)(K2 Int)(L2 Int)(M2 Int)(N2 Int)(O2 Int)(P2 Int)(Q2 Int)(R2 Int)(S2 Int)(T2 Int)(U2 Int)(V2 Int)(W2 Int)(X2 Int)(Y2 Int)(Z2 Int)(A3 Int)(B3 Int)(C3 Int)(D3 Int)(E3 Int)(F3 Int)(G3 Int)(H3 Int)(I3 Int)(J3 Int)(K3 Int)(L3 Int)(M3 Int)(N3 Int)(O3 Int)(P3 Int)(Q3 Int)(R3 Int)(S3 Int)(T3 Int)(U3 Int)(V3 Int)(W3 Int)(X3 Int)(Y3 Int)(Z3 Int)(A4 Int)(B4 Int)(C4 Int)(D4 Int)(E4 Int)(F4 Int)(G4 Int)(H4 Int)(I4 Int)(J4 Int)(K4 Int)(L4 Int)(M4 Int)(N4 Int)(O4 Int)(P4 Int)(Q4 Int)(R4 Int)(S4 Int)(T4 Int)(U4 Int)(V4 Int)(W4 Int)(X4 Int)(Y4 Int)(Z4 Int)(A5 Int)(B5 Int)(C5 Int)(D5 Int)(E5 Int)(F5 Int)(G5 Int)(H5 Int)(I5 Int)(J5 Int)(K5 Int)(L5 Int)(M5 Int)(N5 Int)(O5 Int)(P5 Int)(Q5 Int)(R5 Int)(S5 Int)(T5 Int)(U5 Int)(V5 Int)(W5 Int)(X5 Int)(Y5 Int)(Z5 Int)(A6 Int)(B6 Int)(C6 Int)(D6 Int)(E6 Int)(F6 Int)(G6 Int)(H6 Int)(I6 Int)(J6 Int)(K6 Int)(L6 Int)(M6 Int)(N6 Int)(O6 Int)(P6 Int)(Q6 Int)(R6 Int)(S6 Int)(T6 Int)(U6 Int)(V6 Int)(W6 Int)(X6 Int)(Y6 Int)(Z6 Int)(A7 Int)(B7 Int)(C7 Int)(D7 Int)(E7 Int)(F7 Int)(G7 Int)(H7 Int)(I7 Int)(J7 Int)(K7 Int)(L7 Int)(M7 Int)(N7 Int)(O7 Int)(P7 Int)(Q7 Int)(R7 Int)(S7 Int)(T7 Int)(U7 Int)(V7 Int)(W7 Int)(X7 Int)(Y7 Int)(Z7 Int)(A8 Int)(B8 Int)(C8 Int)(D8 Int)(E8 Int)(F8 Int)(G8 Int)(H8 Int)(I8 Int)(J8 Int)(K8 Int)(L8 Int)(M8 Int)(N8 Int)(O8 Int)(P8 Int)(Q8 Int)(R8 Int)(S8 Int)(T8 Int)(U8 Int)(V8 Int)(W8 Int)(X8 Int)(Y8 Int)(Z8 Int)(A9 Int)(B9 Int)(C9 Int)(D9 Int)(E9 Int)(F9 Int)(G9 Int)(H9 Int)(I9 Int)(J9 Int)(K9 Int)(L9 Int)(M9 Int)(N9 Int)(O9 Int)(P9 Int)(Q9 Int)(R9 Int)(S9 Int))(=>(and (or (or (or (or (or (or (or (or (or (and (and (and (and (= A 1) (= F3 2)) (and (and (and (and (and (and (and (and (and (and (and (and (and (and (and (and (and (and (and (and (and (and (and (and (and (and (and (and (and (and (and (and (and (and (and (and (and (and (and (and (and (and (and (and (and (and (and (and (and (and (and (and (and (and (and (and (and (and (and (and (and (and (and (and (and (and (and (and (and (and (and (and (and (and (and (and (and (and (and (and (and (= G3 B) (= H3 C)) (= I3 D)) (= J3 E)) (= K3 F)) (= L3 G)) (= M3 H)) (= N3 I)) (= O3 J)) (= P3 K)) (= Q3 L)) (= R3 M)) (= S3 N)) (= T3 O)) (= U3 P)) (= V3 Q)) (= W3 R)) (= X3 S)) (= Y3 T)) (= Z3 U)) (= A4 V)) (= B4 W)) (= C4 X)) (= D4 Y)) (= E4 Z)) (= F4 A1)) (= G4 B1)) (= H4 C1)) (= I4 D1)) (= J4 E1)) (= K4 F1)) (= L4 G1)) (= M4 H1)) (= N4 I1)) (= O4 J1)) (= P4 K1)) (= Q4 L1)) (= R4 M1)) (= S4 N1)) (= T4 O1)) (= U4 P1)) (= V4 Q1)) (= W4 R1)) (= X4 S1)) (= Y4 T1)) (= Z4 U1)) (= A5 V1)) (= B5 W1)) (= C5 X1)) (= D5 Y1)) (= E5 Z1)) (= F5 A2)) (= G5 B2)) (= H5 C2)) (= I5 D2)) (= J5 E2)) (= K5 F2)) (= L5 G2)) (= M5 H2)) (= N5 I2)) (= O5 J2)) (= P5 K2)) (= Q5 L2)) (= R5 M2)) (= S5 N2)) (= T5 O2)) (= U5 P2)) (= V5 Q2)) (= W5 R2)) (= X5 S2)) (= Y5 T2)) (= Z5 U2)) (= A6 V2)) (= B6 W2)) (= C6 X2)) (= D6 Y2)) (= E6 Z2)) (= F6 A3)) (= G6 B3)) (= H6 C3)) (= I6 D3)) (= J6 E3))) (and (and (and (and (and (and (and (and (and (and (and (and (and (and (and (and (and (and (and (and (and (and (and (and (and (and (and (and (and (and (and (and (and (and (and (and (and (and (and (and (and (and (and (and (and (and (and (and (and (and (and (and (and (and (and (and (and (and (and (and (and (and (and (and (and (and (and (and (and (and (and (and (and (and (and (and (and (and (and (and (and (= G3 K6) (= H3 L6)) (= I3 M6)) (= J3 N6)) (= K3 O6)) (= L3 P6)) (= M3 Q6)) (= N3 R6)) (= O3 S6)) (= P3 T6)) (= Q3 U6)) (= R3 V6)) (= S3 W6)) (= T3 X6)) (= U3 Y6)) (= V3 Z6)) (= W3 A7)) (= X3 B7)) (= Y3 C7)) (= Z3 D7)) (= A4 E7)) (= B4 F7)) (= C4 G7)) (= D4 H7)) (= E4 I7)) (= F4 J7)) (= G4 K7)) (= H4 L7)) (= I4 M7)) (= J4 N7)) (= K4 O7)) (= L4 P7)) (= M4 Q7)) (= N4 R7)) (= O4 S7)) (= P4 T7)) (= Q4 U7)) (= R4 V7)) (= S4 W7)) (= T4 X7)) (= U4 Y7)) (= V4 Z7)) (= W4 A8)) (= X4 B8)) (= Y4 C8)) (= Z4 D8)) (= A5 E8)) (= B5 F8)) (= C5 G8)) (= D5 H8)) (= E5 I8)) (= F5 J8)) (= G5 K8)) (= H5 L8)) (= I5 M8)) (= J5 N8)) (= K5 O8)) (= L5 P8)) (= M5 Q8)) (= N5 R8)) (= O5 S8)) (= P5 T8)) (= Q5 U8)) (= R5 V8)) (= S5 W8)) (= T5 X8)) (= U5 Y8)) (= V5 Z8)) (= W5 A9)) (= X5 B9)) (= Y5 C9)) (= Z5 D9)) (= A6 E9)) (= B6 F9)) (= C6 G9)) (= D6 H9)) (= E6 I9)) (= F6 J9)) (= G6 K9)) (= H6 L9)) (= I6 M9)) (= J6 N9))) true) (and (and (and (and (= A 2) (= F3 3)) (and (and (and (and (and (and (and (and (and (and (and (and (and (and (and (and (and (and (and (and (and (and (and (and (and (and (and (and (and (and (and (and (and (and (and (and (and (and (and (and (and (and (and (and (and (and (and (and (and (and (and (and (and (and (and (and (and (and (and (and (and (and (and (and (and (and (and (and (and (and (and (and (and (and (and (and (and (and (and (and (and (= G3 B) (= H3 C)) (= I3 D)) (= J3 E)) (= K3 F)) (= L3 G)) (= M3 H)) (= N3 I)) (= O3 J)) (= P3 K)) (= Q3 L)) (= R3 M)) (= S3 N)) (= T3 O)) (= U3 P)) (= V3 Q)) (= W3 R)) (= X3 S)) (= Y3 T)) (= Z3 U)) (= A4 V)) (= B4 W)) (= C4 X)) (= D4 Y)) (= E4 Z)) (= F4 A1)) (= G4 B1)) (= H4 C1)) (= I4 D1)) (= J4 E1)) (= K4 F1)) (= L4 G1)) (= M4 H1)) (= N4 I1)) (= O4 J1)) (= P4 K1)) (= Q4 L1)) (= R4 M1)) (= S4 N1)) (= T4 O1)) (= U4 P1)) (= V4 Q1)) (= W4 R1)) (= X4 S1)) (= Y4 T1)) (= Z4 U1)) (= A5 V1)) (= B5 W1)) (= C5 X1)) (= D5 Y1)) (= E5 Z1)) (= F5 A2)) (= G5 B2)) (= H5 C2)) (= I5 D2)) (= J5 E2)) (= K5 F2)) (= L5 G2)) (= M5 H2)) (= N5 I2)) (= O5 J2)) (= P5 K2)) (= Q5 L2)) (= R5 M2)) (= S5 N2)) (= T5 O2)) (= U5 P2)) (= V5 Q2)) (= W5 R2)) (= X5 S2)) (= Y5 T2)) (= Z5 U2)) (= A6 V2)) (= B6 W2)) (= C6 X2)) (= D6 Y2)) (= E6 Z2)) (= F6 A3)) (= G6 B3)) (= H6 C3)) (= I6 D3)) (= J6 E3))) (and (and (and (and (and (and (and (and (and (and (and (and (and (and (and (and (and (and (and (and (and (and (and (and (and (and (and (and (and (and (and (and (and (and (and (and (and (and (and (and (and (and (and (and (and (and (and (and (and (and (and (and (and (and (and (and (and (and (and (and (and (and (and (and (and (and (and (and (and (and (and (and (and (and (and (and (and (and (and (and (and (= G3 K6) (= H3 L6)) (= I3 M6)) (= J3 N6)) (= K3 O6)) (= L3 P6)) (= M3 Q6)) (= N3 R6)) (= O3 S6)) (= P3 T6)) (= Q3 U6)) (= R3 V6)) (= S3 W6)) (= T3 X6)) (= U3 Y6)) (= V3 Z6)) (= W3 A7)) (= X3 B7)) (= Y3 C7)) (= Z3 D7)) (= A4 E7)) (= B4 F7)) (= C4 G7)) (= D4 H7)) (= E4 I7)) (= F4 J7)) (= G4 K7)) (= H4 L7)) (= I4 M7)) (= J4 N7)) (= K4 O7)) (= L4 P7)) (= M4 Q7)) (= N4 R7)) (= O4 S7)) (= P4 T7)) (= Q4 U7)) (= R4 V7)) (= S4 W7)) (= T4 X7)) (= U4 Y7)) (= V4 Z7)) (= W4 A8)) (= X4 B8)) (= Y4 C8)) (= Z4 D8)) (= A5 E8)) (= B5 F8)) (= C5 G8)) (= D5 H8)) (= E5 I8)) (= F5 J8)) (= G5 K8)) (= H5 L8)) (= I5 M8)) (= O9 N8)) (= K5 O8)) (= L5 P8)) (= M5 Q8)) (= N5 R8)) (= O5 S8)) (= P5 T8)) (= Q5 U8)) (= R5 V8)) (= S5 W8)) (= T5 X8)) (= U5 Y8)) (= V5 Z8)) (= W5 A9)) (= X5 B9)) (= Y5 C9)) (= Z5 D9)) (= A6 E9)) (= B6 F9)) (= C6 G9)) (= D6 H9)) (= E6 I9)) (= F6 J9)) (= G6 K9)) (= H6 L9)) (= I6 M9)) (= J6 N9))) (and (and (not (not (>= (+ (- M5 G5) 0) 0))) (not (not (>= (+ (+ (- I5 G5) (- 1)) 0) 0)))) (not (not (= (* (- 1) J5) (- 1))))))) (and (and (and (and (= A 3) (= F3 4)) (and (and (and (and (and (and (and (and (and (and (and (and (and (and (and (and (and (and (and (and (and (and (and (and (and (and (and (and (and (and (and (and (and (and (and (and (and (and (and (and (and (and (and (and (and (and (and (and (and (and (and (and (and (and (and (and (and (and (and (and (and (and (and (and (and (and (and (and (and (and (and (and (and (and (and (and (and (and (and (and (and (= G3 B) (= H3 C)) (= I3 D)) (= J3 E)) (= K3 F)) (= L3 G)) (= M3 H)) (= N3 I)) (= O3 J)) (= P3 K)) (= Q3 L)) (= R3 M)) (= S3 N)) (= T3 O)) (= U3 P)) (= V3 Q)) (= W3 R)) (= X3 S)) (= Y3 T)) (= Z3 U)) (= A4 V)) (= B4 W)) (= C4 X)) (= D4 Y)) (= E4 Z)) (= F4 A1)) (= G4 B1)) (= H4 C1)) (= I4 D1)) (= J4 E1)) (= K4 F1)) (= L4 G1)) (= M4 H1)) (= N4 I1)) (= O4 J1)) (= P4 K1)) (= Q4 L1)) (= R4 M1)) (= S4 N1)) (= T4 O1)) (= U4 P1)) (= V4 Q1)) (= W4 R1)) (= X4 S1)) (= Y4 T1)) (= Z4 U1)) (= A5 V1)) (= B5 W1)) (= C5 X1)) (= D5 Y1)) (= E5 Z1)) (= F5 A2)) (= G5 B2)) (= H5 C2)) (= I5 D2)) (= J5 E2)) (= K5 F2)) (= L5 G2)) (= M5 H2)) (= N5 I2)) (= O5 J2)) (= P5 K2)) (= Q5 L2)) (= R5 M2)) (= S5 N2)) (= Q5 O2)) (= T5 P2)) (= U5 Q2)) (= V5 R2)) (= W5 S2)) (= X5 T2)) (= Y5 U2)) (= Z5 V2)) (= A6 W2)) (= B6 X2)) (= C6 Y2)) (= D6 Z2)) (= E6 A3)) (= F6 B3)) (= G6 C3)) (= H6 D3)) (= I6 E3))) (and (and (and (and (and (and (and (and (and (and (and (and (and (and (and (and (and (and (and (and (and (and (and (and (and (and (and (and (and (and (and (and (and (and (and (and (and (and (and (and (and (and (and (and (and (and (and (and (and (and (and (and (and (and (and (and (and (and (and (and (and (and (and (and (and (and (and (and (and (and (and (and (and (and (and (and (and (and (and (and (and (= G3 K6) (= H3 L6)) (= I3 M6)) (= J3 N6)) (= K3 O6)) (= L3 P6)) (= M3 Q6)) (= N3 R6)) (= O3 S6)) (= P3 T6)) (= Q3 U6)) (= R3 V6)) (= S3 W6)) (= T3 X6)) (= U3 Y6)) (= V3 Z6)) (= W3 A7)) (= X3 B7)) (= Y3 C7)) (= Z3 D7)) (= A4 E7)) (= B4 F7)) (= C4 G7)) (= D4 H7)) (= E4 I7)) (= F4 J7)) (= G4 K7)) (= H4 L7)) (= I4 M7)) (= J4 N7)) (= K4 O7)) (= L4 P7)) (= M4 Q7)) (= N4 R7)) (= O4 S7)) (= P4 T7)) (= Q4 U7)) (= R4 V7)) (= S4 W7)) (= T4 X7)) (= U4 Y7)) (= V4 Z7)) (= W4 A8)) (= X4 B8)) (= Y4 C8)) (= Z4 D8)) (= A5 E8)) (= B5 F8)) (= C5 G8)) (= D5 H8)) (= E5 I8)) (= F5 J8)) (= J6 K8)) (= H5 L8)) (= I5 M8)) (= J5 N8)) (= K5 O8)) (= L5 P8)) (= M5 Q8)) (= O9 R8)) (= O5 S8)) (= P5 T8)) (= Q5 U8)) (= R5 V8)) (= S5 W8)) (= P9 X8)) (= T5 Y8)) (= U5 Z8)) (= V5 A9)) (= W5 B9)) (= X5 C9)) (= Y5 D9)) (= Z5 E9)) (= A6 F9)) (= B6 G9)) (= C6 H9)) (= D6 I9)) (= E6 J9)) (= F6 K9)) (= G6 L9)) (= H6 M9)) (= I6 N9))) (and (and (and (and (and (not (not (>= (+ (- U5 S5) 0) 0))) (not (not (>= (+ (+ (- U5 R5) (- 1)) 0) 0)))) (not (not (>= (+ (- U5 Q5) 0) 0)))) (not (not (>= (+ (+ (- J6 M5) (- 1)) 0) 0)))) (not (not (>= (+ (- N5 C5) 0) 0)))) (not (not (= (* (- 1) G5) (- 1))))))) (and (and (and (and (= A 4) (= F3 5)) (and (and (and (and (and (and (and (and (and (and (and (and (and (and (and (and (and (and (and (and (and (and (and (and (and (and (and (and (and (and (and (and (and (and (and (and (and (and (and (and (and (and (and (and (and (and (and (and (and (and (and (and (and (and (and (and (and (and (and (and (and (and (and (and (and (and (and (and (and (and (and (and (and (and (and (and (and (and (and (and (and (= G3 B) (= H3 C)) (= I3 D)) (= J3 E)) (= K3 F)) (= L3 G)) (= M3 H)) (= N3 I)) (= O3 J)) (= P3 K)) (= Q3 L)) (= R3 M)) (= S3 N)) (= T3 O)) (= U3 P)) (= V3 Q)) (= W3 R)) (= X3 S)) (= Y3 T)) (= Z3 U)) (= A4 V)) (= B4 W)) (= C4 X)) (= D4 Y)) (= E4 Z)) (= F4 A1)) (= G4 B1)) (= H4 C1)) (= I4 D1)) (= J4 E1)) (= K4 F1)) (= L4 G1)) (= M4 H1)) (= N4 I1)) (= O4 J1)) (= P4 K1)) (= Q4 L1)) (= R4 M1)) (= S4 N1)) (= T4 O1)) (= U4 P1)) (= V4 Q1)) (= W4 R1)) (= X4 S1)) (= Y4 T1)) (= Z4 U1)) (= A5 V1)) (= B5 W1)) (= C5 X1)) (= D5 Y1)) (= E5 Z1)) (= F5 A2)) (= G5 B2)) (= H5 C2)) (= I5 D2)) (= J5 E2)) (= K5 F2)) (= L5 G2)) (= M5 H2)) (= N5 I2)) (= O5 J2)) (= P5 K2)) (= Q5 L2)) (= R5 M2)) (= S5 N2)) (= T5 O2)) (= U5 P2)) (= V5 Q2)) (= W5 R2)) (= X5 S2)) (= Y5 T2)) (= Z5 U2)) (= A6 V2)) (= B6 W2)) (= C6 X2)) (= D6 Y2)) (= E6 Z2)) (= F6 A3)) (= G6 B3)) (= H6 C3)) (= I6 D3)) (= J6 E3))) (and (and (and (and (and (and (and (and (and (and (and (and (and (and (and (and (and (and (and (and (and (and (and (and (and (and (and (and (and (and (and (and (and (and (and (and (and (and (and (and (and (and (and (and (and (and (and (and (and (and (and (and (and (and (and (and (and (and (and (and (and (and (and (and (and (and (and (and (and (and (and (and (and (and (and (and (and (and (and (and (and (= G3 K6) (= H3 L6)) (= I3 M6)) (= J3 N6)) (= K3 O6)) (= L3 P6)) (= M3 Q6)) (= N3 R6)) (= O3 S6)) (= P3 T6)) (= Q3 U6)) (= R3 V6)) (= S3 W6)) (= T3 X6)) (= U3 Y6)) (= V3 Z6)) (= W3 A7)) (= X3 B7)) (= Y3 C7)) (= Z3 D7)) (= A4 E7)) (= B4 F7)) (= C4 G7)) (= D4 H7)) (= E4 I7)) (= F4 J7)) (= G4 K7)) (= H4 L7)) (= I4 M7)) (= J4 N7)) (= K4 O7)) (= L4 P7)) (= M4 Q7)) (= N4 R7)) (= O4 S7)) (= P4 T7)) (= Q4 U7)) (= R4 V7)) (= S4 W7)) (= T4 X7)) (= U4 Y7)) (= V4 Z7)) (= W4 A8)) (= X4 B8)) (= Y4 C8)) (= Z4 D8)) (= A5 E8)) (= B5 F8)) (= C5 G8)) (= D5 H8)) (= E5 I8)) (= F5 J8)) (= G5 K8)) (= H5 L8)) (= I5 M8)) (= J5 N8)) (= K5 O8)) (= L5 P8)) (= M5 Q8)) (= N5 R8)) (= O5 S8)) (= P5 T8)) (= Q5 U8)) (= R5 V8)) (= S5 W8)) (= T5 X8)) (= U5 Y8)) (= V5 Z8)) (= W5 A9)) (= X5 B9)) (= Y5 C9)) (= Z5 D9)) (= A6 E9)) (= B6 F9)) (= C6 G9)) (= D6 H9)) (= E6 I9)) (= F6 J9)) (= G6 K9)) (= H6 L9)) (= I6 M9)) (= J6 N9))) true)) (and (and (and (and (= A 5) (= F3 6)) (and (and (and (and (and (and (and (and (and (and (and (and (and (and (and (and (and (and (and (and (and (and (and (and (and (and (and (and (and (and (and (and (and (and (and (and (and (and (and (and (and (and (and (and (and (and (and (and (and (and (and (and (and (and (and (and (and (and (and (and (and (and (and (and (and (and (and (and (and (and (and (and (and (and (and (and (and (and (and (and (and (= G3 B) (= H3 C)) (= I3 D)) (= J3 E)) (= K3 F)) (= L3 G)) (= M3 H)) (= N3 I)) (= O3 J)) (= P3 K)) (= Q3 L)) (= R3 M)) (= S3 N)) (= T3 O)) (= U3 P)) (= V3 Q)) (= W3 R)) (= X3 S)) (= Y3 T)) (= Z3 U)) (= A4 V)) (= B4 W)) (= C4 X)) (= D4 Y)) (= E4 Z)) (= F4 A1)) (= G4 B1)) (= H4 C1)) (= I4 D1)) (= J4 E1)) (= K4 F1)) (= L4 G1)) (= M4 H1)) (= N4 I1)) (= O4 J1)) (= P4 K1)) (= Q4 L1)) (= R4 M1)) (= S4 N1)) (= T4 O1)) (= U4 P1)) (= V4 Q1)) (= W4 R1)) (= X4 S1)) (= Y4 T1)) (= Z4 U1)) (= A5 V1)) (= B5 W1)) (= C5 X1)) (= D5 Y1)) (= E5 Z1)) (= F5 A2)) (= G5 B2)) (= H5 C2)) (= I5 D2)) (= J5 E2)) (= K5 F2)) (= L5 G2)) (= M5 H2)) (= N5 I2)) (= O5 J2)) (= P5 K2)) (= Q5 L2)) (= R5 M2)) (= R5 N2)) (= S5 O2)) (= T5 P2)) (= U5 Q2)) (= V5 R2)) (= W5 S2)) (= X5 T2)) (= Y5 U2)) (= Z5 V2)) (= A6 W2)) (= B6 X2)) (= C6 Y2)) (= D6 Z2)) (= E6 A3)) (= F6 B3)) (= G6 C3)) (= H6 D3)) (= I6 E3))) (and (and (and (and (and (and (and (and (and (and (and (and (and (and (and (and (and (and (and (and (and (and (and (and (and (and (and (and (and (and (and (and (and (and (and (and (and (and (and (and (and (and (and (and (and (and (and (and (and (and (and (and (and (and (and (and (and (and (and (and (and (and (and (and (and (and (and (and (and (and (and (and (and (and (and (and (and (and (and (and (and (= G3 K6) (= H3 L6)) (= I3 M6)) (= J3 N6)) (= K3 O6)) (= L3 P6)) (= M3 Q6)) (= N3 R6)) (= O3 S6)) (= P3 T6)) (= Q3 U6)) (= R3 V6)) (= S3 W6)) (= T3 X6)) (= U3 Y6)) (= V3 Z6)) (= W3 A7)) (= X3 B7)) (= Y3 C7)) (= Z3 D7)) (= A4 E7)) (= B4 F7)) (= C4 G7)) (= D4 H7)) (= E4 I7)) (= F4 J7)) (= G4 K7)) (= H4 L7)) (= I4 M7)) (= J4 N7)) (= K4 O7)) (= L4 P7)) (= M4 Q7)) (= N4 R7)) (= O4 S7)) (= P4 T7)) (= Q4 U7)) (= R4 V7)) (= S4 W7)) (= T4 X7)) (= U4 Y7)) (= V4 Z7)) (= W4 A8)) (= X4 B8)) (= Y4 C8)) (= Z4 D8)) (= A5 E8)) (= B5 F8)) (= C5 G8)) (= D5 H8)) (= E5 I8)) (= F5 J8)) (= J6 K8)) (= O9 L8)) (= P9 M8)) (= J5 N8)) (= K5 O8)) (= L5 P8)) (= M5 Q8)) (= N5 R8)) (= O5 S8)) (= P5 T8)) (= Q9 U8)) (= R9 V8)) (= S9 W8)) (= S5 X8)) (= T5 Y8)) (= U5 Z8)) (= V5 A9)) (= W5 B9)) (= X5 C9)) (= Y5 D9)) (= Z5 E9)) (= A6 F9)) (= B6 G9)) (= C6 H9)) (= D6 I9)) (= E6 J9)) (= F6 K9)) (= G6 L9)) (= H6 M9)) (= I6 N9))) (and (and (and (not (not (>= (+ (+ (- Q5 R5) (- 1)) 0) 0))) (not (not (= (* (- 1) I5) (- 2))))) (not (not (= (* (- 1) H5) (- 1))))) (not (not (= (* (- 1) G5) (- 3))))))) (and (and (and (and (= A 6) (= F3 7)) (and (and (and (and (and (and (and (and (and (and (and (and (and (and (and (and (and (and (and (and (and (and (and (and (and (and (and (and (and (and (and (and (and (and (and (and (and (and (and (and (and (and (and (and (and (and (and (and (and (and (and (and (and (and (and (and (and (and (and (and (and (and (and (and (and (and (and (and (and (and (and (and (and (and (and (and (and (and (and (and (and (= G3 B) (= H3 C)) (= I3 D)) (= J3 E)) (= K3 F)) (= L3 G)) (= M3 H)) (= N3 I)) (= O3 J)) (= P3 K)) (= Q3 L)) (= R3 M)) (= S3 N)) (= T3 O)) (= U3 P)) (= V3 Q)) (= W3 R)) (= X3 S)) (= Y3 T)) (= Z3 U)) (= A4 V)) (= B4 W)) (= C4 X)) (= D4 Y)) (= E4 Z)) (= F4 A1)) (= G4 B1)) (= H4 C1)) (= I4 D1)) (= J4 E1)) (= K4 F1)) (= L4 G1)) (= M4 H1)) (= N4 I1)) (= O4 J1)) (= P4 K1)) (= Q4 L1)) (= R4 M1)) (= S4 N1)) (= T4 O1)) (= U4 P1)) (= V4 Q1)) (= W4 R1)) (= X4 S1)) (= Y4 T1)) (= Z4 U1)) (= A5 V1)) (= B5 W1)) (= C5 X1)) (= D5 Y1)) (= E5 Z1)) (= F5 A2)) (= G5 B2)) (= H5 C2)) (= I5 D2)) (= J5 E2)) (= K5 F2)) (= L5 G2)) (= M5 H2)) (= N5 I2)) (= O5 J2)) (= P5 K2)) (= Q5 L2)) (= R5 M2)) (= S5 N2)) (= T5 O2)) (= U5 P2)) (= V5 Q2)) (= W5 R2)) (= X5 S2)) (= Y5 T2)) (= Z5 U2)) (= A6 V2)) (= B6 W2)) (= C6 X2)) (= D6 Y2)) (= E6 Z2)) (= F6 A3)) (= G6 B3)) (= H6 C3)) (= I6 D3)) (= J6 E3))) (and (and (and (and (and (and (and (and (and (and (and (and (and (and (and (and (and (and (and (and (and (and (and (and (and (and (and (and (and (and (and (and (and (and (and (and (and (and (and (and (and (and (and (and (and (and (and (and (and (and (and (and (and (and (and (and (and (and (and (and (and (and (and (and (and (and (and (and (and (and (and (and (and (and (and (and (and (and (and (and (and (= G3 K6) (= H3 L6)) (= I3 M6)) (= J3 N6)) (= K3 O6)) (= L3 P6)) (= M3 Q6)) (= N3 R6)) (= O3 S6)) (= P3 T6)) (= Q3 U6)) (= R3 V6)) (= S3 W6)) (= T3 X6)) (= U3 Y6)) (= V3 Z6)) (= W3 A7)) (= X3 B7)) (= Y3 C7)) (= Z3 D7)) (= A4 E7)) (= B4 F7)) (= C4 G7)) (= D4 H7)) (= E4 I7)) (= F4 J7)) (= G4 K7)) (= H4 L7)) (= I4 M7)) (= J4 N7)) (= K4 O7)) (= L4 P7)) (= M4 Q7)) (= N4 R7)) (= O4 S7)) (= P4 T7)) (= Q4 U7)) (= R4 V7)) (= S4 W7)) (= T4 X7)) (= U4 Y7)) (= V4 Z7)) (= W4 A8)) (= X4 B8)) (= Y4 C8)) (= Z4 D8)) (= A5 E8)) (= B5 F8)) (= C5 G8)) (= D5 H8)) (= E5 I8)) (= F5 J8)) (= G5 K8)) (= H5 L8)) (= I5 M8)) (= J5 N8)) (= K5 O8)) (= L5 P8)) (= M5 Q8)) (= N5 R8)) (= O5 S8)) (= P5 T8)) (= Q5 U8)) (= R5 V8)) (= S5 W8)) (= T5 X8)) (= U5 Y8)) (= V5 Z8)) (= W5 A9)) (= X5 B9)) (= Y5 C9)) (= Z5 D9)) (= A6 E9)) (= B6 F9)) (= C6 G9)) (= D6 H9)) (= E6 I9)) (= F6 J9)) (= G6 K9)) (= H6 L9)) (= I6 M9)) (= J6 N9))) (not (not (>= (+ (+ (- L5 Z4) (- 1)) 0) 0))))) (and (and (and (and (= A 7) (= F3 8)) (and (and (and (and (and (and (and (and (and (and (and (and (and (and (and (and (and (and (and (and (and (and (and (and (and (and (and (and (and (and (and (and (and (and (and (and (and (and (and (and (and (and (and (and (and (and (and (and (and (and (and (and (and (and (and (and (and (and (and (and (and (and (and (and (and (and (and (and (and (and (and (and (and (and (and (and (and (and (and (and (and (= G3 B) (= H3 C)) (= I3 D)) (= J3 E)) (= K3 F)) (= L3 G)) (= M3 H)) (= N3 I)) (= O3 J)) (= P3 K)) (= Q3 L)) (= R3 M)) (= S3 N)) (= T3 O)) (= U3 P)) (= V3 Q)) (= W3 R)) (= X3 S)) (= Y3 T)) (= Z3 U)) (= A4 V)) (= B4 W)) (= C4 X)) (= D4 Y)) (= E4 Z)) (= F4 A1)) (= G4 B1)) (= H4 C1)) (= I4 D1)) (= J4 E1)) (= K4 F1)) (= L4 G1)) (= M4 H1)) (= N4 I1)) (= O4 J1)) (= P4 K1)) (= Q4 L1)) (= R4 M1)) (= S4 N1)) (= T4 O1)) (= U4 P1)) (= V4 Q1)) (= W4 R1)) (= X4 S1)) (= Y4 T1)) (= Z4 U1)) (= A5 V1)) (= B5 W1)) (= C5 X1)) (= D5 Y1)) (= E5 Z1)) (= F5 A2)) (= G5 B2)) (= H5 C2)) (= I5 D2)) (= J5 E2)) (= K5 F2)) (= L5 G2)) (= M5 H2)) (= N5 I2)) (= O5 J2)) (= P5 K2)) (= Q5 L2)) (= R5 M2)) (= S5 N2)) (= T5 O2)) (= U5 P2)) (= V5 Q2)) (= W5 R2)) (= X5 S2)) (= Y5 T2)) (= Z5 U2)) (= A6 V2)) (= B6 W2)) (= C6 X2)) (= D6 Y2)) (= E6 Z2)) (= F6 A3)) (= G6 B3)) (= H6 C3)) (= I6 D3)) (= J6 E3))) (and (and (and (and (and (and (and (and (and (and (and (and (and (and (and (and (and (and (and (and (and (and (and (and (and (and (and (and (and (and (and (and (and (and (and (and (and (and (and (and (and (and (and (and (and (and (and (and (and (and (and (and (and (and (and (and (and (and (and (and (and (and (and (and (and (and (and (and (and (and (and (and (and (and (and (and (and (and (and (and (and (= G3 K6) (= H3 L6)) (= I3 M6)) (= J3 N6)) (= K3 O6)) (= L3 P6)) (= M3 Q6)) (= N3 R6)) (= O3 S6)) (= P3 T6)) (= Q3 U6)) (= R3 V6)) (= S3 W6)) (= T3 X6)) (= U3 Y6)) (= V3 Z6)) (= W3 A7)) (= X3 B7)) (= Y3 C7)) (= Z3 D7)) (= A4 E7)) (= B4 F7)) (= C4 G7)) (= D4 H7)) (= E4 I7)) (= F4 J7)) (= G4 K7)) (= H4 L7)) (= I4 M7)) (= J4 N7)) (= K4 O7)) (= L4 P7)) (= M4 Q7)) (= N4 R7)) (= O4 S7)) (= P4 T7)) (= Q4 U7)) (= R4 V7)) (= S4 W7)) (= T4 X7)) (= U4 Y7)) (= V4 Z7)) (= W4 A8)) (= X4 B8)) (= Y4 C8)) (= Z4 D8)) (= A5 E8)) (= B5 F8)) (= C5 G8)) (= D5 H8)) (= E5 I8)) (= F5 J8)) (= G5 K8)) (= H5 L8)) (= I5 M8)) (= J5 N8)) (= K5 O8)) (= O9 P8)) (= M5 Q8)) (= N5 R8)) (= O5 S8)) (= P5 T8)) (= Q5 U8)) (= R5 V8)) (= S5 W8)) (= T5 X8)) (= U5 Y8)) (= V5 Z8)) (= W5 A9)) (= X5 B9)) (= Y5 C9)) (= Z5 D9)) (= A6 E9)) (= B6 F9)) (= C6 G9)) (= D6 H9)) (= E6 I9)) (= F6 J9)) (= G6 K9)) (= H6 L9)) (= I6 M9)) (= J6 N9))) (and (not (not (>= (+ (+ (- K5 M5) (- 1)) 0) 0))) (not (not (= (+ O9 1) L5)))))) (and (and (and (and (= A 8) (= F3 9)) (and (and (and (and (and (and (and (and (and (and (and (and (and (and (and (and (and (and (and (and (and (and (and (and (and (and (and (and (and (and (and (and (and (and (and (and (and (and (and (and (and (and (and (and (and (and (and (and (and (and (and (and (and (and (and (and (and (and (and (and (and (and (and (and (and (and (and (and (and (and (and (and (and (and (and (and (and (and (and (and (and (= G3 B) (= H3 C)) (= I3 D)) (= J3 E)) (= K3 F)) (= L3 G)) (= M3 H)) (= N3 I)) (= O3 J)) (= P3 K)) (= Q3 L)) (= R3 M)) (= S3 N)) (= T3 O)) (= U3 P)) (= V3 Q)) (= W3 R)) (= X3 S)) (= Y3 T)) (= Z3 U)) (= A4 V)) (= B4 W)) (= C4 X)) (= D4 Y)) (= E4 Z)) (= F4 A1)) (= G4 B1)) (= H4 C1)) (= I4 D1)) (= J4 E1)) (= K4 F1)) (= L4 G1)) (= M4 H1)) (= N4 I1)) (= O4 J1)) (= P4 K1)) (= Q4 L1)) (= R4 M1)) (= S4 N1)) (= T4 O1)) (= U4 P1)) (= V4 Q1)) (= W4 R1)) (= X4 S1)) (= Y4 T1)) (= Z4 U1)) (= A5 V1)) (= B5 W1)) (= C5 X1)) (= D5 Y1)) (= E5 Z1)) (= F5 A2)) (= G5 B2)) (= H5 C2)) (= I5 D2)) (= J5 E2)) (= K5 F2)) (= L5 G2)) (= M5 H2)) (= N5 I2)) (= O5 J2)) (= P5 K2)) (= Q5 L2)) (= R5 M2)) (= S5 N2)) (= T5 O2)) (= U5 P2)) (= V5 Q2)) (= W5 R2)) (= X5 S2)) (= Y5 T2)) (= Z5 U2)) (= A6 V2)) (= B6 W2)) (= C6 X2)) (= D6 Y2)) (= E6 Z2)) (= F6 A3)) (= G6 B3)) (= H6 C3)) (= I6 D3)) (= J6 E3))) (and (and (and (and (and (and (and (and (and (and (and (and (and (and (and (and (and (and (and (and (and (and (and (and (and (and (and (and (and (and (and (and (and (and (and (and (and (and (and (and (and (and (and (and (and (and (and (and (and (and (and (and (and (and (and (and (and (and (and (and (and (and (and (and (and (and (and (and (and (and (and (and (and (and (and (and (and (and (and (and (and (= G3 K6) (= H3 L6)) (= I3 M6)) (= J3 N6)) (= K3 O6)) (= L3 P6)) (= M3 Q6)) (= N3 R6)) (= O3 S6)) (= P3 T6)) (= Q3 U6)) (= R3 V6)) (= S3 W6)) (= T3 X6)) (= U3 Y6)) (= V3 Z6)) (= W3 A7)) (= X3 B7)) (= Y3 C7)) (= Z3 D7)) (= A4 E7)) (= B4 F7)) (= C4 G7)) (= D4 H7)) (= E4 I7)) (= F4 J7)) (= G4 K7)) (= H4 L7)) (= I4 M7)) (= J4 N7)) (= K4 O7)) (= L4 P7)) (= M4 Q7)) (= N4 R7)) (= O4 S7)) (= P4 T7)) (= Q4 U7)) (= R4 V7)) (= S4 W7)) (= T4 X7)) (= U4 Y7)) (= V4 Z7)) (= W4 A8)) (= X4 B8)) (= Y4 C8)) (= Z4 D8)) (= A5 E8)) (= B5 F8)) (= C5 G8)) (= D5 H8)) (= E5 I8)) (= F5 J8)) (= G5 K8)) (= H5 L8)) (= I5 M8)) (= J5 N8)) (= O9 O8)) (= L5 P8)) (= M5 Q8)) (= N5 R8)) (= P9 S8)) (= P5 T8)) (= Q5 U8)) (= R5 V8)) (= S5 W8)) (= T5 X8)) (= U5 Y8)) (= V5 Z8)) (= W5 A9)) (= X5 B9)) (= Y5 C9)) (= Z5 D9)) (= A6 E9)) (= B6 F9)) (= C6 G9)) (= D6 H9)) (= E6 I9)) (= F6 J9)) (= G6 K9)) (= H6 L9)) (= I6 M9)) (= J6 N9))) (and (and (and (and (and (not (not (>= (+ (- L5 Z5) 0) 0))) (not (not (>= (+ (- A6 L5) 0) 0)))) (not (not (>= (+ (- O9 X5) 0) 0)))) (not (not (>= (+ (- Y5 O9) 0) 0)))) (not (not (>= (+ (- M5 O9) 0) 0)))) (not (not (= (+ O9 1) K5)))))) (and (and (and (and (= A 9) (= F3 10)) (and (and (and (and (and (and (and (and (and (and (and (and (and (and (and (and (and (and (and (and (and (and (and (and (and (and (and (and (and (and (and (and (and (and (and (and (and (and (and (and (and (and (and (and (and (and (and (and (and (and (and (and (and (and (and (and (and (and (and (and (and (and (and (and (and (and (and (and (and (and (and (and (and (and (and (and (and (and (and (and (and (= G3 B) (= H3 C)) (= I3 D)) (= J3 E)) (= K3 F)) (= L3 G)) (= M3 H)) (= N3 I)) (= O3 J)) (= P3 K)) (= Q3 L)) (= R3 M)) (= S3 N)) (= T3 O)) (= U3 P)) (= V3 Q)) (= W3 R)) (= X3 S)) (= Y3 T)) (= Z3 U)) (= A4 V)) (= B4 W)) (= C4 X)) (= D4 Y)) (= E4 Z)) (= F4 A1)) (= G4 B1)) (= H4 C1)) (= I4 D1)) (= J4 E1)) (= K4 F1)) (= L4 G1)) (= M4 H1)) (= N4 I1)) (= O4 J1)) (= P4 K1)) (= Q4 L1)) (= R4 M1)) (= S4 N1)) (= T4 O1)) (= U4 P1)) (= V4 Q1)) (= W4 R1)) (= X4 S1)) (= Y4 T1)) (= Z4 U1)) (= A5 V1)) (= B5 W1)) (= C5 X1)) (= D5 Y1)) (= E5 Z1)) (= F5 A2)) (= G5 B2)) (= H5 C2)) (= I5 D2)) (= J5 E2)) (= K5 F2)) (= L5 G2)) (= M5 H2)) (= N5 I2)) (= O5 J2)) (= P5 K2)) (= Q5 L2)) (= R5 M2)) (= S5 N2)) (= T5 O2)) (= U5 P2)) (= V5 Q2)) (= W5 R2)) (= X5 S2)) (= Y5 T2)) (= Z5 U2)) (= A6 V2)) (= B6 W2)) (= C6 X2)) (= D6 Y2)) (= E6 Z2)) (= F6 A3)) (= G6 B3)) (= H6 C3)) (= I6 D3)) (= J6 E3))) (and (and (and (and (and (and (and (and (and (and (and (and (and (and (and (and (and (and (and (and (and (and (and (and (and (and (and (and (and (and (and (and (and (and (and (and (and (and (and (and (and (and (and (and (and (and (and (and (and (and (and (and (and (and (and (and (and (and (and (and (and (and (and (and (and (and (and (and (and (and (and (and (and (and (and (and (and (and (and (and (and (= G3 K6) (= H3 L6)) (= I3 M6)) (= J3 N6)) (= K3 O6)) (= L3 P6)) (= M3 Q6)) (= N3 R6)) (= O3 S6)) (= P3 T6)) (= Q3 U6)) (= R3 V6)) (= S3 W6)) (= T3 X6)) (= U3 Y6)) (= V3 Z6)) (= W3 A7)) (= X3 B7)) (= Y3 C7)) (= Z3 D7)) (= A4 E7)) (= B4 F7)) (= C4 G7)) (= D4 H7)) (= E4 I7)) (= F4 J7)) (= G4 K7)) (= H4 L7)) (= I4 M7)) (= J4 N7)) (= K4 O7)) (= L4 P7)) (= M4 Q7)) (= N4 R7)) (= O4 S7)) (= P4 T7)) (= Q4 U7)) (= R4 V7)) (= S4 W7)) (= T4 X7)) (= U4 Y7)) (= V4 Z7)) (= W4 A8)) (= X4 B8)) (= Y4 C8)) (= Z4 D8)) (= A5 E8)) (= B5 F8)) (= C5 G8)) (= D5 H8)) (= E5 I8)) (= F5 J8)) (= G5 K8)) (= H5 L8)) (= I5 M8)) (= J5 N8)) (= O9 O8)) (= L5 P8)) (= M5 Q8)) (= N5 R8)) (= P9 S8)) (= P5 T8)) (= Q5 U8)) (= R5 V8)) (= S5 W8)) (= T5 X8)) (= U5 Y8)) (= V5 Z8)) (= W5 A9)) (= X5 B9)) (= Y5 C9)) (= Z5 D9)) (= A6 E9)) (= B6 F9)) (= C6 G9)) (= D6 H9)) (= E6 I9)) (= F6 J9)) (= G6 K9)) (= H6 L9)) (= I6 M9)) (= J6 N9))) (and (and (and (and (and (not (not (>= (+ (- L5 Z5) 0) 0))) (not (not (>= (+ (- A6 L5) 0) 0)))) (not (not (>= (+ (- O9 X5) 0) 0)))) (not (not (>= (+ (- Y5 O9) 0) 0)))) (not (not (>= (+ (- M5 O9) 0) 0)))) (not (not (= (+ O9 1) K5)))))) (and (and (and (and (= A 10) (= F3 11)) (and (and (and (and (and (and (and (and (and (and (and (and (and (and (and (and (and (and (and (and (and (and (and (and (and (and (and (and (and (and (and (and (and (and (and (and (and (and (and (and (and (and (and (and (and (and (and (and (and (and (and (and (and (and (and (and (and (and (and (and (and (and (and (and (and (and (and (and (and (and (and (and (and (and (and (and (and (and (and (and (and (= G3 B) (= H3 C)) (= I3 D)) (= J3 E)) (= K3 F)) (= L3 G)) (= M3 H)) (= N3 I)) (= O3 J)) (= P3 K)) (= Q3 L)) (= R3 M)) (= S3 N)) (= T3 O)) (= U3 P)) (= V3 Q)) (= W3 R)) (= X3 S)) (= Y3 T)) (= Z3 U)) (= A4 V)) (= B4 W)) (= C4 X)) (= D4 Y)) (= E4 Z)) (= F4 A1)) (= G4 B1)) (= H4 C1)) (= I4 D1)) (= J4 E1)) (= K4 F1)) (= L4 G1)) (= M4 H1)) (= N4 I1)) (= O4 J1)) (= P4 K1)) (= Q4 L1)) (= R4 M1)) (= S4 N1)) (= T4 O1)) (= U4 P1)) (= V4 Q1)) (= W4 R1)) (= X4 S1)) (= Y4 T1)) (= Z4 U1)) (= A5 V1)) (= B5 W1)) (= C5 X1)) (= D5 Y1)) (= E5 Z1)) (= F5 A2)) (= G5 B2)) (= H5 C2)) (= I5 D2)) (= J5 E2)) (= K5 F2)) (= L5 G2)) (= M5 H2)) (= N5 I2)) (= O5 J2)) (= P5 K2)) (= Q5 L2)) (= R5 M2)) (= S5 N2)) (= T5 O2)) (= U5 P2)) (= V5 Q2)) (= W5 R2)) (= X5 S2)) (= Y5 T2)) (= Z5 U2)) (= A6 V2)) (= B6 W2)) (= C6 X2)) (= D6 Y2)) (= E6 Z2)) (= F6 A3)) (= G6 B3)) (= H6 C3)) (= I6 D3)) (= J6 E3))) (and (and (and (and (and (and (and (and (and (and (and (and (and (and (and (and (and (and (and (and (and (and (and (and (and (and (and (and (and (and (and (and (and (and (and (and (and (and (and (and (and (and (and (and (and (and (and (and (and (and (and (and (and (and (and (and (and (and (and (and (and (and (and (and (and (and (and (and (and (and (and (and (and (and (and (and (and (and (and (and (and (= G3 K6) (= H3 L6)) (= I3 M6)) (= J3 N6)) (= K3 O6)) (= L3 P6)) (= M3 Q6)) (= N3 R6)) (= O3 S6)) (= P3 T6)) (= Q3 U6)) (= R3 V6)) (= S3 W6)) (= T3 X6)) (= U3 Y6)) (= V3 Z6)) (= W3 A7)) (= X3 B7)) (= Y3 C7)) (= Z3 D7)) (= A4 E7)) (= B4 F7)) (= C4 G7)) (= D4 H7)) (= E4 I7)) (= F4 J7)) (= G4 K7)) (= H4 L7)) (= I4 M7)) (= J4 N7)) (= K4 O7)) (= L4 P7)) (= M4 Q7)) (= N4 R7)) (= O4 S7)) (= P4 T7)) (= Q4 U7)) (= R4 V7)) (= S4 W7)) (= T4 X7)) (= U4 Y7)) (= V4 Z7)) (= W4 A8)) (= X4 B8)) (= Y4 C8)) (= Z4 D8)) (= A5 E8)) (= B5 F8)) (= C5 G8)) (= D5 H8)) (= E5 I8)) (= F5 J8)) (= G5 K8)) (= H5 L8)) (= I5 M8)) (= J5 N8)) (= O9 O8)) (= L5 P8)) (= M5 Q8)) (= N5 R8)) (= P9 S8)) (= P5 T8)) (= Q5 U8)) (= R5 V8)) (= S5 W8)) (= T5 X8)) (= U5 Y8)) (= V5 Z8)) (= W5 A9)) (= X5 B9)) (= Y5 C9)) (= Z5 D9)) (= A6 E9)) (= B6 F9)) (= C6 G9)) (= D6 H9)) (= E6 I9)) (= F6 J9)) (= G6 K9)) (= H6 L9)) (= I6 M9)) (= J6 N9))) (and (and (not (not (>= (+ (- Z4 L5) 0) 0))) (not (not (= (* (- 1) O5) 0)))) (not (not (= (* (- 1) K5) (- 1))))))) (p F3 K6 L6 M6 N6 O6 P6 Q6 R6 S6 T6 U6 V6 W6 X6 Y6 Z6 A7 B7 C7 D7 E7 F7 G7 H7 I7 J7 K7 L7 M7 N7 O7 P7 Q7 R7 S7 T7 U7 V7 W7 X7 Y7 Z7 A8 B8 C8 D8 E8 F8 G8 H8 I8 J8 K8 L8 M8 N8 O8 P8 Q8 R8 S8 T8 U8 V8 W8 X8 Y8 Z8 A9 B9 C9 D9 E9 F9 G9 H9 I9 J9 K9 L9 M9 N9)) (p A B C D E F G H I J K L M N O P Q R S T U V W X Y Z A1 B1 C1 D1 E1 F1 G1 H1 I1 J1 K1 L1 M1 N1 O1 P1 Q1 R1 S1 T1 U1 V1 W1 X1 Y1 Z1 A2 B2 C2 D2 E2 F2 G2 H2 I2 J2 K2 L2 M2 N2 O2 P2 Q2 R2 S2 T2 U2 V2 W2 X2 Y2 Z2 A3 B3 C3 D3 E3))))
(assert(not (exists((A Int)(B Int)(C Int)(D Int)(E Int)(F Int)(G Int)(H Int)(I Int)(J Int)(K Int)(L Int)(M Int)(N Int)(O Int)(P Int)(Q Int)(R Int)(S Int)(T Int)(U Int)(V Int)(W Int)(X Int)(Y Int)(Z Int)(A1 Int)(B1 Int)(C1 Int)(D1 Int)(E1 Int)(F1 Int)(G1 Int)(H1 Int)(I1 Int)(J1 Int)(K1 Int)(L1 Int)(M1 Int)(N1 Int)(O1 Int)(P1 Int)(Q1 Int)(R1 Int)(S1 Int)(T1 Int)(U1 Int)(V1 Int)(W1 Int)(X1 Int)(Y1 Int)(Z1 Int)(A2 Int)(B2 Int)(C2 Int)(D2 Int)(E2 Int)(F2 Int)(G2 Int)(H2 Int)(I2 Int)(J2 Int)(K2 Int)(L2 Int)(M2 Int)(N2 Int)(O2 Int)(P2 Int)(Q2 Int)(R2 Int)(S2 Int)(T2 Int)(U2 Int)(V2 Int)(W2 Int)(X2 Int)(Y2 Int)(Z2 Int)(A3 Int)(B3 Int)(C3 Int)(D3 Int)(E3 Int)(F3 Int)(G3 Int)(H3 Int)(I3 Int)(J3 Int)(K3 Int)(L3 Int)(M3 Int)(N3 Int)(O3 Int)(P3 Int)(Q3 Int)(R3 Int)(S3 Int)(T3 Int)(U3 Int)(V3 Int)(W3 Int)(X3 Int)(Y3 Int)(Z3 Int)(A4 Int)(B4 Int)(C4 Int)(D4 Int)(E4 Int)(F4 Int)(G4 Int)(H4 Int)(I4 Int)(J4 Int)(K4 Int)(L4 Int)(M4 Int)(N4 Int)(O4 Int)(P4 Int)(Q4 Int)(R4 Int)(S4 Int)(T4 Int)(U4 Int)(V4 Int)(W4 Int)(X4 Int)(Y4 Int)(Z4 Int)(A5 Int)(B5 Int)(C5 Int)(D5 Int)(E5 Int)(F5 Int)(G5 Int)(H5 Int)(I5 Int)(J5 Int)(K5 Int)(L5 Int)(M5 Int)(N5 Int)(O5 Int)(P5 Int)(Q5 Int)(R5 Int)(S5 Int)(T5 Int)(U5 Int)(V5 Int)(W5 Int)(X5 Int)(Y5 Int)(Z5 Int)(A6 Int)(B6 Int)(C6 Int)(D6 Int)(E6 Int)(F6 Int)(G6 Int)(H6 Int)(I6 Int))(and (and (and (= A 1) (and (and (and (and (and (and (and (and (and (and (and (and (and (and (and (and (and (and (and (and (and (and (and (and (and (and (and (and (and (and (and (and (and (and (and (and (and (and (and (and (and (and (and (and (and (and (and (and (and (and (and (and (and (and (and (and (and (and (and (and (and (and (and (and (and (and (and (and (and (and (and (and (and (and (and (and (and (and (and (and (and (= B C) (= D E)) (= F G)) (= H I)) (= J K)) (= L M)) (= N O)) (= P Q)) (= R S)) (= T U)) (= V W)) (= X Y)) (= Z A1)) (= B1 C1)) (= D1 E1)) (= F1 G1)) (= H1 I1)) (= J1 K1)) (= L1 M1)) (= N1 O1)) (= P1 Q1)) (= R1 S1)) (= T1 U1)) (= V1 W1)) (= X1 Y1)) (= Z1 A2)) (= B2 C2)) (= D2 E2)) (= F2 G2)) (= H2 I2)) (= J2 K2)) (= L2 M2)) (= N2 O2)) (= P2 Q2)) (= R2 S2)) (= T2 U2)) (= V2 W2)) (= X2 Y2)) (= Z2 A3)) (= B3 C3)) (= D3 E3)) (= F3 G3)) (= H3 I3)) (= J3 K3)) (= L3 M3)) (= N3 O3)) (= P3 Q3)) (= R3 S3)) (= T3 U3)) (= V3 W3)) (= X3 Y3)) (= Z3 A4)) (= B4 C4)) (= D4 E4)) (= F4 G4)) (= H4 I4)) (= J4 K4)) (= L4 M4)) (= N4 O4)) (= P4 Q4)) (= R4 S4)) (= T4 U4)) (= V4 W4)) (= X4 Y4)) (= Z4 A5)) (= B5 C5)) (= D5 E5)) (= F5 G5)) (= H5 I5)) (= J5 K5)) (= L5 M5)) (= N5 O5)) (= P5 Q5)) (= R5 S5)) (= T5 U5)) (= V5 W5)) (= X5 Y5)) (= Z5 A6)) (= B6 C6)) (= D6 E6)) (= F6 G6)) (= H6 I6))) (and (and (and (and (and (not (not (>= (+ (- H4 N5) 0) 0))) (not (not (>= (+ (- P5 H4) 0) 0)))) (not (not (>= (+ (- F4 J5) 0) 0)))) (not (not (>= (+ (- L5 F4) 0) 0)))) (not (not (>= (+ (+ (- J5 B4) (- 1)) 0) 0)))) (not (not (>= (+ (- N3 H4) 0) 0))))) (p A C E G I K M O Q S U W Y A1 C1 E1 G1 I1 K1 M1 O1 Q1 S1 U1 W1 Y1 A2 C2 E2 G2 I2 K2 M2 O2 Q2 S2 U2 W2 Y2 A3 C3 E3 G3 I3 K3 M3 O3 Q3 S3 U3 W3 Y3 A4 C4 E4 G4 I4 K4 M4 O4 Q4 S4 U4 W4 Y4 A5 C5 E5 G5 I5 K5 M5 O5 Q5 S5 U5 W5 Y5 A6 C6 E6 G6 I6)))))
(check-sat)
